[ma. 03. april 14:16:39 +0200 2023]  ./input/alternate_g_np/50-1-0.gcc
Set parameter Username
Academic license - for non-commercial use only - expires 2024-03-28
Set parameter TimeLimit to value 1800
Set parameter PreCrush to value 1
Set parameter LazyConstraints to value 1
Gurobi Optimizer version 10.0.1 build v10.0.1rc0 (linux64)

CPU model: AMD Ryzen 9 5950X 16-Core Processor, instruction set [SSE2|AVX|AVX2]
Thread count: 16 physical cores, 32 logical processors, using up to 32 threads

Optimize a model with 52 rows, 150 columns and 350 nonzeros
Model fingerprint: 0x4714058b
Variable types: 0 continuous, 150 integer (150 binary)
Coefficient statistics:
  Matrix range     [1e+00, 1e+00]
  Objective range  [1e+00, 1e+02]
  Bounds range     [1e+00, 1e+00]
  RHS range        [1e+00, 1e+00]
Presolve time: 0.00s
Presolved: 52 rows, 150 columns, 350 nonzeros
Variable types: 0 continuous, 150 integer (150 binary)

Root relaxation: objective 2.471000e+03, 2 iterations, 0.00 seconds (0.00 work units)

    Nodes    |    Current Node    |     Objective Bounds      |     Work
 Expl Unexpl |  Obj  Depth IntInf | Incumbent    BestBd   Gap | It/Node Time

     0     0 2471.00000    0    2          - 2471.00000      -     -    0s
     0     0 2231.00000    0    -          - 2231.00000      -     -    0s
     0     0 2210.00000    0    -          - 2210.00000      -     -    0s
     0     0 2103.00000    0    8          - 2103.00000      -     -    0s
     0     0  902.00000    0    -          -  902.00000      -     -    0s
     0     0  902.00000    0    -          -  902.00000      -     -    0s
     0     0  902.00000    0    -          -  902.00000      -     -    0s
     0     0  902.00000    0   12          -  902.00000      -     -    0s
     0     0  861.00000    0   10          -  861.00000      -     -    0s
     0     0  754.00000    0   12          -  754.00000      -     -    0s
     0     0  668.46667    0   16          -  668.46667      -     -    0s
     0     0  632.85870    0   20          -  632.85870      -     -    0s
     0     0  567.20000    0   20          -  567.20000      -     -    0s
     0     0  558.53333    0   22          -  558.53333      -     -    0s
     0     0  521.51852    0   22          -  521.51852      -     -    0s
     0     0  506.35065    0   26          -  506.35065      -     -    0s
     0     0  489.27119    0   22          -  489.27119      -     -    0s
     0     0  475.73016    0   28          -  475.73016      -     -    0s
     0     0  463.66667    0   23          -  463.66667      -     -    0s
     0     0  457.96774    0   28          -  457.96774      -     -    0s
     0     0  454.33333    0   14          -  454.33333      -     -    0s
*    0     0               0     454.0000000  454.00000  0.00%     -    0s

Cutting planes:
  User: 29
  MIR: 1
  Lazy constraints: 49

Explored 1 nodes (408 simplex iterations) in 0.01 seconds (0.01 work units)
Thread count was 32 (of 32 available processors)

Solution count 1: 454 

Optimal solution found (tolerance 1.00e-04)
Best objective 4.540000000000e+02, best bound 4.540000000000e+02, gap 0.0000%

User-callback calls 198, time in user-callback 0.00 sec
Minimal separator inequalities added: 85
Indegree inequalities added: 42
Passed solution check
[ma. 03. april 14:16:39 +0200 2023]  done

